n = 15;
m = 37;

max_len = 9;
word_lens = [ 4, 5, 5, 5, 5, 5, 5, 5, 6, 6, 6, 6, 6, 6, 6, 6, 6, 6, 6, 6, 7, 7, 7, 7, 7, 7, 7, 7, 8, 8, 8, 8, 8, 8, 8, 9, 9 ];
words = [| M, I, E, N, E, E, E, E, E | M, A, C, H, O, E, E, E, E | S, U, A, V, E, E, E, E, E | G, R, U, F, F, E, E, E, E | F, A, N, C, Y, E, E, E, E | B, R, A, S, H, E, E, E, E | S, H, O, W, Y, E, E, E, E | S, P, A, I, N, E, E, E, E | B, O, Y, I, S, H, E, E, E | G, E, N, I, A, L, E, E, E | D, A, P, P, E, R, E, E, E | U, R, B, A, N, E, E, E, E | R, A, K, I, S, H, E, E, E | F, L, A, S, H, Y, E, E, E | F, R, A, N, C, E, E, E, E | F, L, O, R, I, D, E, E, E | J, O, V, I, A, L, E, E, E | F, E, I, S, T, Y, E, E, E | P, O, R, T, L, Y, E, E, E | R, O, T, U, N, D, E, E, E | S, T, Y, L, I, S, H, E, E | P, E, R, S, O, N, A, E, E | V, O, L, U, B, L, E, E, E | A, F, F, A, B, L, E, E, E | S, H, O, W, M, A, N, E, E | B, I, Z, A, R, R, E, E, E | S, P, L, A, S, H, Y, E, E | D, E, L, O, N, I, X, E, E | T, A, C, I, T, U, R, N, E | P, O, P, U, L, I, S, T, E | P, E, N, C, H, A, N, T, E | P, O, R, T, U, G, A, L, E | F, A, M, O, U, S, L, Y, E | M, A, V, E, R, I, C, K, E | C, O, L, O, R, F, U, L, E | G, A, R, R, U, L, O, U, S | G, L, A, M, O, R, O, U, S |];

pos_var_strat = first_fail;
pos_val_strat = indomain_median;
